NAME : C13.899149.tour
COMMENT : Cost = 0_899149
COMMENT : Found by LKH [Keld Helsgaun] Mon Dec 18 22:01:27 2017
TYPE : TOUR
DIMENSION : 131
TOUR_SECTION
1
99
69
80
81
54
56
59
57
61
64
128
120
82
118
114
84
7
6
5
4
3
2
127
89
83
112
87
86
90
92
91
115
19
119
109
122
22
21
24
27
29
33
36
35
37
30
124
111
53
55
58
60
66
62
63
65
67
130
113
85
8
10
11
12
16
15
14
13
9
126
68
70
71
72
75
73
76
79
78
77
74
123
110
18
17
20
26
23
25
28
32
31
34
129
88
93
38
39
40
43
42
45
48
47
50
131
121
106
107
108
105
104
117
101
100
102
103
97
125
96
94
95
98
116
41
44
46
49
51
52
-1
EOF
